(set-option :produce-models true)
(set-logic QF_UF)
(declare-fun p17() Bool)
(declare-fun p45() Bool)
(declare-fun p7() Bool)
(declare-fun p58() Bool)
(declare-fun p37() Bool)
(declare-fun p32() Bool)
(declare-fun p36() Bool)
(declare-fun p20() Bool)
(declare-fun p40() Bool)
(declare-fun p22() Bool)
(declare-fun p21() Bool)
(declare-fun p10() Bool)
(declare-fun p14() Bool)
(declare-fun p11() Bool)
(declare-fun p38() Bool)
(declare-fun p39() Bool)
(declare-fun p43() Bool)
(declare-fun p30() Bool)
(declare-fun p6() Bool)
(declare-fun p52() Bool)
(declare-fun p18() Bool)
(declare-fun p15() Bool)
(declare-fun p59() Bool)
(declare-fun p41() Bool)
(declare-fun p48() Bool)
(declare-fun p55() Bool)
(declare-fun p53() Bool)
(declare-fun p50() Bool)
(declare-fun p4() Bool)
(declare-fun p24() Bool)
(declare-fun p35() Bool)
(declare-fun p28() Bool)
(declare-fun p44() Bool)
(declare-fun p25() Bool)
(declare-fun p3() Bool)
(declare-fun p33() Bool)
(declare-fun p12() Bool)
(declare-fun p23() Bool)
(declare-fun p1() Bool)
(declare-fun p8() Bool)
(declare-fun p42() Bool)
(declare-fun p51() Bool)
(declare-fun p16() Bool)
(declare-fun p19() Bool)
(declare-fun p2() Bool)
(declare-fun p29() Bool)
(declare-fun p0() Bool)
(declare-fun p34() Bool)
(declare-fun p56() Bool)
(declare-fun p54() Bool)
(declare-fun p31() Bool)
(declare-fun p13() Bool)
(declare-fun p9() Bool)
(declare-fun p27() Bool)
(declare-fun p57() Bool)
(declare-fun p47() Bool)
(declare-fun p49() Bool)
(declare-fun p46() Bool)
(declare-fun p5() Bool)
(declare-fun p26() Bool)
(assert
(and (or (not p17) p45 p45) (or (not p7) p58 (not p37)) (or p32 p36 (not p20)) (or p40 p22 p21) (or (not p10) (not p14) (not p11)) (or p38 p39 p45) (or p7 p43 (not p30)) (or p6 (not p7) (not p7)) (or p52 (not p18) (not p15)) (or (not p59) p41 p14) (or p48 (not p20) p55) (or p53 p50 p59) (or p4 p24 (not p40)) (or p35 (not p38) (not p39)) (or p41 (not p17) (not p32)) (or p59 (not p11) (not p38)) (or (not p28) p44 (not p25)) (or p48 p3 (not p33)) (or p39 (not p58) (not p12)) (or p50 p43 p17) (or p30 p32 p32) (or (not p17) (not p23) p24) (or (not p39) p1 p53) (or p24 p17 p33) (or p4 (not p8) (not p28)) (or (not p17) (not p42) p51) (or p50 p7 p40) (or (not p15) (not p16) p19) (or (not p2) p40 p24) (or p42 p42 (not p51)) (or p36 (not p18) (not p24)) (or (not p29) p7 (not p52)) (or p30 p0 p10) (or (not p34) p21 p19) (or (not p56) (not p52) p54) (or p22 (not p23) (not p18)) (or (not p39) p3 p25) (or p19 p21 p20) (or p16 p42 p31) (or (not p15) p3 p58) (or p0 (not p17) (not p3)) (or (not p20) (not p13) (not p21)) (or (not p24) p53 (not p3)) (or p52 p34 p37) (or (not p28) (not p4) p22) (or p56 (not p18) p9) (or (not p22) (not p30) (not p43)) (or p27 p12 p31) (or (not p29) p54 p53) (or (not p44) (not p31) p56) (or (not p6) (not p10) p53) (or (not p43) p43 p43) (or (not p37) (not p57) p27) (or p29 (not p54) (not p1)) (or p31 (not p12) p51) (or p52 (not p21) p25) (or (not p13) (not p47) p9) (or p15 p58 p6) (or p10 p23 p49) (or p32 p53 (not p43)) (or (not p49) (not p37) p41) (or p38 (not p10) p12) (or p57 p55 p25) (or (not p12) (not p36) (not p46)) (or p5 (not p3) p24) (or p5 (not p5) p14) (or (not p57) (not p0) p26) (or p46 (not p39) (not p53)) (or (not p55) p55 p32) (or p10 p45 (not p24)) (or p21 (not p15) (not p41)) (or p26 p19 p19) (or p25 p11 (not p39)) (or (not p37) (not p9) (not p32)) (or p31 (not p18) (not p24)) (or (not p56) (not p13) p2) (or p50 p37 (not p37)) (or (not p6) (not p18) p44) (or (not p51) p11 p44) (or p11 p22 (not p29)) (or p29 p45 p24) (or p39 (not p49) (not p7)) (or (not p10) (not p4) (not p27)) (or p13 (not p51) (not p3)) (or (not p6) (not p26) (not p18)) (or (not p45) (not p48) (not p23)) (or p38 p58 p34) (or (not p24) (not p59) p2) (or (not p22) p59 p15) (or p59 p5 p49) (or (not p47) (not p56) p26) (or p5 p32 p43) (or (not p57) (not p16) (not p14)) (or p28 (not p20) p19) (or (not p49) p22 p34) (or (not p1) p36 (not p52)) (or (not p38) p54 p10) (or (not p51) p33 (not p4)) (or (not p0) (not p32) (not p48)) (or (not p12) p7 p12) (or (not p23) p32 p38) (or (not p46) (not p24) p53) (or (not p56) (not p5) (not p30)) (or p30 p45 (not p51)) (or p20 (not p48) p6) (or p40 p17 (not p0)) (or p25 (not p46) p35) (or p5 (not p30) p33) (or p31 p54 (not p1)) (or p27 (not p57) p31) (or (not p20) p12 p32) (or (not p57) p3 p45) (or p9 p23 p29) (or (not p13) p11 p2) (or p17 (not p49) (not p44)) (or p51 (not p9) p19) (or p48 (not p18) p33) (or p28 p36 p31) (or (not p52) (not p31) p28) (or p32 (not p10) p56) (or p53 (not p52) p55) (or (not p54) (not p13) (not p54)) (or p8 (not p29) p13) (or p42 (not p23) p43) (or (not p33) p6 (not p41)) (or p3 (not p19) (not p53)) (or (not p6) (not p24) (not p19)) (or (not p57) (not p48) p24) (or (not p57) (not p2) (not p25)) (or (not p14) p18 p23) (or (not p0) (not p24) (not p13)) (or (not p29) (not p34) (not p53)) (or p39 p14 p42) (or (not p31) p4 p20) (or p29 p45 (not p22)) (or (not p28) (not p15) (not p45)) (or p27 p21 (not p13)) (or p6 (not p33) p2) (or (not p38) (not p44) (not p3)) (or p55 p14 (not p49)) (or p26 p52 (not p2)) (or p56 (not p23) (not p19)) (or (not p1) p42 p22) (or p43 (not p14) p18) (or p58 p3 p52) (or (not p15) p19 (not p6)) (or p12 (not p39) (not p10)) (or p53 p21 p20) (or (not p36) (not p46) (not p4)) (or p54 p23 p8) (or (not p9) p40 (not p51)) (or p24 (not p9) (not p45)) (or p43 (not p31) (not p51)) (or (not p23) (not p3) (not p59)) (or p38 p20 (not p24)) (or (not p57) (not p58) (not p2)) (or (not p2) p43 p22) (or p21 p7 (not p14)) (or p10 p29 p22) (or p40 p0 (not p48)) (or p53 (not p26) (not p52)) (or (not p42) (not p20) p21) (or p15 p27 (not p55)) (or (not p59) p41 (not p9)) (or (not p25) (not p31) (not p47)) (or (not p24) (not p56) (not p45)) (or (not p46) p22 p51) (or p36 (not p48) p53) (or (not p23) p28 (not p3)) (or p49 (not p16) p36) (or (not p57) p6 p12) (or (not p27) p44 (not p19)) (or (not p28) p58 p20) (or p18 (not p32) (not p11)) (or (not p35) (not p28) p11) (or (not p34) (not p19) (not p52)) (or p22 p34 (not p58)) (or p49 p30 p33) (or p54 (not p55) p0) (or (not p19) p38 (not p26)) (or (not p49) (not p22) (not p47)) (or p14 (not p55) (not p44)) (or p25 (not p48) p47) (or p7 p54 p51) (or (not p12) (not p6) p50) (or p11 p31 (not p38)) (or (not p1) p7 (not p38)) (or (not p0) p54 p14) (or p47 (not p11) (not p15)) (or p37 (not p49) p13) (or (not p28) (not p56) p57) (or (not p58) (not p45) p56) (or p20 p13 (not p36)) (or (not p20) p59 p9) (or p6 p47 p48) (or p40 (not p20) (not p15)) (or p44 p33 p43) (or (not p31) (not p24) p39) (or (not p20) p20 (not p35)) (or (not p22) p11 p24) (or p44 (not p27) (not p41)) (or p29 (not p32) p24) (or p14 p38 (not p38)) (or (not p44) p5 (not p27)) (or p11 (not p2) p11) (or p15 (not p1) p24) (or p16 p38 (not p15)) (or (not p33) (not p29) (not p19)) (or (not p38) p34 p58) (or (not p38) (not p43) p20) (or p33 (not p17) p59) (or (not p26) p25 p13) (or (not p27) p9 (not p10)) (or (not p58) p22 (not p15)) (or (not p21) (not p59) p38) (or p6 (not p20) p30) (or p16 (not p27) (not p57)) (or p58 p33 (not p57)) (or p5 p32 p27) (or p54 (not p7) p37) (or (not p57) (not p33) (not p43)) (or p39 (not p16) p47) (or (not p32) (not p1) p32) (or (not p55) p49 (not p14)) (or p37 (not p57) p0) (or p51 (not p58) p54) (or p17 p14 (not p30)) (or (not p8) (not p30) (not p25)) (or p53 p56 p28) (or p11 p37 p11) (or p24 p8 (not p18)) (or p22 (not p26) p16) (or p9 p45 (not p14)) (or p37 (not p51) p57) (or (not p11) p33 p21) (or (not p54) p8 p8) (or p50 (not p25) p30) (or (not p5) p33 p9) (or p10 p5 (not p10)) (or p46 (not p22) p4) (or p30 (not p45) p41) (or p19 p24 (not p11)) (or (not p18) p17 p1) (or p57 p21 p40) (or p27 (not p4) p17) (or (not p5) (not p7) (not p6)) (or p31 p18 p34) (or p37 p50 (not p0)) (or (not p26) (not p41) (not p47)) (or (not p7) p16 (not p35)) (or p13 (not p37) p56) (or p52 p24 (not p56)))
)
(check-sat)
(get-model)
